c Generated map
c Size: 8 * 8, weights in range: 1 to 10, walls: True, with ratio 0.1
c dim 5 of 10
c
p sp 64 92
c graph contains 64 nodes and 92 arcs
c
a 1 9 2
a 9 1 2
a 1 2 8
a 2 1 8
a 2 10 5
a 10 2 5
a 2 3 4
a 3 2 4
a 3 11 8
a 11 3 8
a 3 4 9
a 4 3 9
a 4 12 7
a 12 4 7
a 4 5 5
a 5 4 5
a 5 13 10
a 13 5 10
a 5 6 6
a 6 5 6
a 6 14 10
a 14 6 10
a 6 7 4
a 7 6 4
a 7 15 1
a 15 7 1
a 9 17 10
a 17 9 10
a 9 10 7
a 10 9 7
a 10 18 2
a 18 10 2
a 10 11 5
a 11 10 5
a 11 19 7
a 19 11 7
a 11 12 4
a 12 11 4
a 12 20 5
a 20 12 5
a 12 13 4
a 13 12 4
a 13 21 4
a 21 13 4
a 13 14 9
a 14 13 9
a 14 22 2
a 22 14 2
a 14 15 7
a 15 14 7
a 15 23 2
a 23 15 2
a 15 16 2
a 16 15 2
a 16 24 8
a 24 16 8
a 17 25 7
a 25 17 7
a 17 18 6
a 18 17 6
a 18 26 3
a 26 18 3
a 18 19 9
a 19 18 9
a 19 27 6
a 27 19 6
a 19 20 5
a 20 19 5
a 20 28 5
a 28 20 5
a 20 21 1
a 21 20 1
a 21 29 2
a 29 21 2
a 21 22 10
a 22 21 10
a 22 30 10
a 30 22 10
a 22 23 8
a 23 22 8
a 23 31 7
a 31 23 7
a 23 24 7
a 24 23 7
a 24 32 6
a 32 24 6
a 25 33 1
a 33 25 1
a 25 26 1
a 26 25 1
a 26 34 9
a 34 26 9
a 26 27 10
a 27 26 10
a 27 28 1
a 28 27 1
a 28 36 7
a 36 28 7
a 28 29 8
a 29 28 8
a 29 37 6
a 37 29 6
a 29 30 7
a 30 29 7
a 30 38 2
a 38 30 2
a 30 31 2
a 31 30 2
a 31 39 6
a 39 31 6
a 31 32 3
a 32 31 3
a 32 40 1
a 40 32 1
a 33 41 1
a 41 33 1
a 33 34 6
a 34 33 6
a 34 42 9
a 42 34 9
a 36 44 1
a 44 36 1
a 36 37 6
a 37 36 6
a 37 38 9
a 38 37 9
a 38 46 8
a 46 38 8
a 38 39 4
a 39 38 4
a 39 47 3
a 47 39 3
a 39 40 4
a 40 39 4
a 40 48 7
a 48 40 7
a 41 42 5
a 42 41 5
a 42 50 6
a 50 42 6
a 42 43 3
a 43 42 3
a 43 44 6
a 44 43 6
a 44 52 8
a 52 44 8
a 46 54 2
a 54 46 2
a 46 47 8
a 47 46 8
a 47 55 8
a 55 47 8
a 47 48 2
a 48 47 2
a 50 58 5
a 58 50 5
a 52 60 6
a 60 52 6
a 52 53 3
a 53 52 3
a 53 61 5
a 61 53 5
a 53 54 6
a 54 53 6
a 54 62 7
a 62 54 7
a 54 55 7
a 55 54 7
a 55 63 2
a 63 55 2
a 57 58 9
a 58 57 9
a 58 59 3
a 59 58 3
a 59 60 1
a 60 59 1
a 60 61 8
a 61 60 8
a 61 62 9
a 62 61 9
a 62 63 5
a 63 62 5
a 63 64 9
a 64 63 9
